c description: Random 3-CNF over 22 variables and 94 clauses
c generator: CNFgen (0.9.2)
c copyright: (C) 2012-2022 Massimo Lauria <massimo.lauria@uniroma1.it>
c url: https://massimolauria.net/cnfgen
c command line: cnfgen --output CNF_4.28/22_bit_94_113.cnf randkcnf 3 22 94
c
p cnf 22 94
-4 -10 22 0
-1 7 -15 0
10 -15 18 0
-1 15 -17 0
6 -8 -13 0
2 -4 -16 0
-8 -17 20 0
9 -19 22 0
-2 3 15 0
2 17 -22 0
12 14 15 0
14 15 19 0
1 9 -21 0
-3 -6 -11 0
-9 11 -12 0
14 18 -20 0
13 19 22 0
5 -7 -13 0
1 3 5 0
-7 15 17 0
-1 -5 -12 0
-7 9 -21 0
8 -10 22 0
5 7 21 0
-13 -19 -22 0
6 -11 -16 0
-8 -11 13 0
-1 -2 -17 0
1 -12 20 0
3 8 -20 0
2 -11 17 0
-2 6 11 0
13 16 -19 0
1 -2 -15 0
-1 17 21 0
7 -17 22 0
3 15 20 0
-3 -4 -15 0
-2 16 17 0
12 -16 20 0
-3 -6 -15 0
-2 3 7 0
-4 -10 16 0
3 -4 -21 0
-1 -2 -4 0
-8 12 -14 0
1 6 19 0
-14 15 -16 0
-3 -16 22 0
2 -5 -9 0
12 15 19 0
-8 -11 15 0
-2 8 16 0
-9 -14 -19 0
2 15 21 0
8 -12 -16 0
14 17 -20 0
-2 -14 -22 0
-2 -12 22 0
-14 18 22 0
-10 -14 -19 0
-12 14 21 0
6 13 22 0
8 10 16 0
-18 -19 20 0
15 21 -22 0
-10 12 -16 0
4 -12 -17 0
2 8 11 0
-7 19 -22 0
8 -9 -20 0
11 14 -16 0
-2 -14 -16 0
-10 -13 -17 0
5 -20 22 0
-1 3 21 0
15 19 -20 0
-1 -16 -22 0
-13 -18 19 0
11 -18 -20 0
-3 -10 -13 0
1 -9 -10 0
4 7 -22 0
1 6 -20 0
-3 -15 -20 0
-10 12 -17 0
-3 19 20 0
9 11 -12 0
-6 7 -14 0
1 10 22 0
-11 20 -21 0
-10 -13 -20 0
-2 -7 -17 0
3 11 -12 0
